c t pmc
p cnf 921 1059
c p show 1 2 3 4 5 6 7 8 9 10 11 12 13 14 15 16 17 18 19 20 21 22 23 24 25 26 27 0
1 2 3 0
-1 -2 0
-1 -3 0
-2 -3 0
4 5 6 0
-4 -5 0
-4 -6 0
-5 -6 0
7 8 9 0
-7 -8 0
-7 -9 0
-8 -9 0
10 11 12 0
-10 -11 0
-10 -12 0
-11 -12 0
13 14 15 0
-13 -14 0
-13 -15 0
-14 -15 0
16 17 18 0
-16 -17 0
-16 -18 0
-17 -18 0
19 20 21 0
-19 -20 0
-19 -21 0
-20 -21 0
22 23 24 0
-22 -23 0
-22 -24 0
-23 -24 0
25 26 27 0
-25 -26 0
-25 -27 0
-26 -27 0
-792 -1 25 26 0
-792 -2 25 0
-792 -3 0
-793 -1 27 0
-793 -2 26 0
-793 -3 25 0
792 793 0
792 794 0
-794 795 796 0
-794 795 797 0
-797 798 799 0
-797 798 800 0
-800 801 802 0
-800 801 803 0
-803 804 805 0
-803 804 806 0
-806 807 808 0
-806 807 809 0
-809 810 811 0
-809 810 812 0
-812 813 814 0
-812 813 815 0
-815 816 817 0
-795 -4 22 23 0
-795 -5 22 0
-795 -6 0
-796 -4 24 0
-796 -5 23 0
-796 -6 22 0
792 793 0
792 794 0
-794 795 796 0
-794 795 797 0
-797 798 799 0
-797 798 800 0
-800 801 802 0
-800 801 803 0
-803 804 805 0
-803 804 806 0
-806 807 808 0
-806 807 809 0
-809 810 811 0
-809 810 812 0
-812 813 814 0
-812 813 815 0
-815 816 817 0
-798 -7 19 20 0
-798 -8 19 0
-798 -9 0
-799 -7 21 0
-799 -8 20 0
-799 -9 19 0
792 793 0
792 794 0
-794 795 796 0
-794 795 797 0
-797 798 799 0
-797 798 800 0
-800 801 802 0
-800 801 803 0
-803 804 805 0
-803 804 806 0
-806 807 808 0
-806 807 809 0
-809 810 811 0
-809 810 812 0
-812 813 814 0
-812 813 815 0
-815 816 817 0
-801 -10 16 17 0
-801 -11 16 0
-801 -12 0
-802 -10 18 0
-802 -11 17 0
-802 -12 16 0
792 793 0
792 794 0
-794 795 796 0
-794 795 797 0
-797 798 799 0
-797 798 800 0
-800 801 802 0
-800 801 803 0
-803 804 805 0
-803 804 806 0
-806 807 808 0
-806 807 809 0
-809 810 811 0
-809 810 812 0
-812 813 814 0
-812 813 815 0
-815 816 817 0
-804 13 0
-805 14 0
792 793 0
792 794 0
-794 795 796 0
-794 795 797 0
-797 798 799 0
-797 798 800 0
-800 801 802 0
-800 801 803 0
-803 804 805 0
-803 804 806 0
-806 807 808 0
-806 807 809 0
-809 810 811 0
-809 810 812 0
-812 813 814 0
-812 813 815 0
-815 816 817 0
-807 -16 10 11 0
-807 -17 10 0
-807 -18 0
-808 -16 12 0
-808 -17 11 0
-808 -18 10 0
792 793 0
792 794 0
-794 795 796 0
-794 795 797 0
-797 798 799 0
-797 798 800 0
-800 801 802 0
-800 801 803 0
-803 804 805 0
-803 804 806 0
-806 807 808 0
-806 807 809 0
-809 810 811 0
-809 810 812 0
-812 813 814 0
-812 813 815 0
-815 816 817 0
-810 -19 7 8 0
-810 -20 7 0
-810 -21 0
-811 -19 9 0
-811 -20 8 0
-811 -21 7 0
792 793 0
792 794 0
-794 795 796 0
-794 795 797 0
-797 798 799 0
-797 798 800 0
-800 801 802 0
-800 801 803 0
-803 804 805 0
-803 804 806 0
-806 807 808 0
-806 807 809 0
-809 810 811 0
-809 810 812 0
-812 813 814 0
-812 813 815 0
-815 816 817 0
-813 -22 4 5 0
-813 -23 4 0
-813 -24 0
-814 -22 6 0
-814 -23 5 0
-814 -24 4 0
792 793 0
792 794 0
-794 795 796 0
-794 795 797 0
-797 798 799 0
-797 798 800 0
-800 801 802 0
-800 801 803 0
-803 804 805 0
-803 804 806 0
-806 807 808 0
-806 807 809 0
-809 810 811 0
-809 810 812 0
-812 813 814 0
-812 813 815 0
-815 816 817 0
-816 -25 1 2 0
-816 -26 1 0
-816 -27 0
-817 -25 3 0
-817 -26 2 0
-817 -27 1 0
792 793 0
792 794 0
-794 795 796 0
-794 795 797 0
-797 798 799 0
-797 798 800 0
-800 801 802 0
-800 801 803 0
-803 804 805 0
-803 804 806 0
-806 807 808 0
-806 807 809 0
-809 810 811 0
-809 810 812 0
-812 813 814 0
-812 813 815 0
-815 816 817 0
-818 -1 13 15 0
-818 -2 15 0
-818 -3 0
-819 -1 14 0
-819 -2 13 0
-819 -3 15 0
818 819 0
818 820 0
-820 821 822 0
-820 821 823 0
-823 824 825 0
-823 824 826 0
-826 827 828 0
-826 827 829 0
-829 830 831 0
-829 830 832 0
-832 833 834 0
-832 833 835 0
-835 836 837 0
-835 836 838 0
-838 839 840 0
-838 839 841 0
-841 842 843 0
-821 -4 10 12 0
-821 -5 12 0
-821 -6 0
-822 -4 11 0
-822 -5 10 0
-822 -6 12 0
818 819 0
818 820 0
-820 821 822 0
-820 821 823 0
-823 824 825 0
-823 824 826 0
-826 827 828 0
-826 827 829 0
-829 830 831 0
-829 830 832 0
-832 833 834 0
-832 833 835 0
-835 836 837 0
-835 836 838 0
-838 839 840 0
-838 839 841 0
-841 842 843 0
-824 -7 16 18 0
-824 -8 18 0
-824 -9 0
-825 -7 17 0
-825 -8 16 0
-825 -9 18 0
818 819 0
818 820 0
-820 821 822 0
-820 821 823 0
-823 824 825 0
-823 824 826 0
-826 827 828 0
-826 827 829 0
-829 830 831 0
-829 830 832 0
-832 833 834 0
-832 833 835 0
-835 836 837 0
-835 836 838 0
-838 839 840 0
-838 839 841 0
-841 842 843 0
-827 -10 4 6 0
-827 -11 6 0
-827 -12 0
-828 -10 5 0
-828 -11 4 0
-828 -12 6 0
818 819 0
818 820 0
-820 821 822 0
-820 821 823 0
-823 824 825 0
-823 824 826 0
-826 827 828 0
-826 827 829 0
-829 830 831 0
-829 830 832 0
-832 833 834 0
-832 833 835 0
-835 836 837 0
-835 836 838 0
-838 839 840 0
-838 839 841 0
-841 842 843 0
-830 -13 1 3 0
-830 -14 3 0
-830 -15 0
-831 -13 2 0
-831 -14 1 0
-831 -15 3 0
818 819 0
818 820 0
-820 821 822 0
-820 821 823 0
-823 824 825 0
-823 824 826 0
-826 827 828 0
-826 827 829 0
-829 830 831 0
-829 830 832 0
-832 833 834 0
-832 833 835 0
-835 836 837 0
-835 836 838 0
-838 839 840 0
-838 839 841 0
-841 842 843 0
-833 -16 7 9 0
-833 -17 9 0
-833 -18 0
-834 -16 8 0
-834 -17 7 0
-834 -18 9 0
818 819 0
818 820 0
-820 821 822 0
-820 821 823 0
-823 824 825 0
-823 824 826 0
-826 827 828 0
-826 827 829 0
-829 830 831 0
-829 830 832 0
-832 833 834 0
-832 833 835 0
-835 836 837 0
-835 836 838 0
-838 839 840 0
-838 839 841 0
-841 842 843 0
-836 -19 22 24 0
-836 -20 24 0
-836 -21 0
-837 -19 23 0
-837 -20 22 0
-837 -21 24 0
818 819 0
818 820 0
-820 821 822 0
-820 821 823 0
-823 824 825 0
-823 824 826 0
-826 827 828 0
-826 827 829 0
-829 830 831 0
-829 830 832 0
-832 833 834 0
-832 833 835 0
-835 836 837 0
-835 836 838 0
-838 839 840 0
-838 839 841 0
-841 842 843 0
-839 -22 19 21 0
-839 -23 21 0
-839 -24 0
-840 -22 20 0
-840 -23 19 0
-840 -24 21 0
818 819 0
818 820 0
-820 821 822 0
-820 821 823 0
-823 824 825 0
-823 824 826 0
-826 827 828 0
-826 827 829 0
-829 830 831 0
-829 830 832 0
-832 833 834 0
-832 833 835 0
-835 836 837 0
-835 836 838 0
-838 839 840 0
-838 839 841 0
-841 842 843 0
-842 25 0
-843 27 0
818 819 0
818 820 0
-820 821 822 0
-820 821 823 0
-823 824 825 0
-823 824 826 0
-826 827 828 0
-826 827 829 0
-829 830 831 0
-829 830 832 0
-832 833 834 0
-832 833 835 0
-835 836 837 0
-835 836 838 0
-838 839 840 0
-838 839 841 0
-841 842 843 0
-844 2 0
-845 1 0
844 845 0
844 846 0
-846 847 848 0
-846 847 849 0
-849 850 851 0
-849 850 852 0
-852 853 854 0
-852 853 855 0
-855 856 857 0
-855 856 858 0
-858 859 860 0
-858 859 861 0
-861 862 863 0
-861 862 864 0
-864 865 866 0
-864 865 867 0
-867 868 869 0
-847 -4 8 9 0
-847 -5 8 0
-847 -6 0
-848 -4 7 0
-848 -5 9 0
-848 -6 8 0
844 845 0
844 846 0
-846 847 848 0
-846 847 849 0
-849 850 851 0
-849 850 852 0
-852 853 854 0
-852 853 855 0
-855 856 857 0
-855 856 858 0
-858 859 860 0
-858 859 861 0
-861 862 863 0
-861 862 864 0
-864 865 866 0
-864 865 867 0
-867 868 869 0
-850 -7 5 6 0
-850 -8 5 0
-850 -9 0
-851 -7 4 0
-851 -8 6 0
-851 -9 5 0
844 845 0
844 846 0
-846 847 848 0
-846 847 849 0
-849 850 851 0
-849 850 852 0
-852 853 854 0
-852 853 855 0
-855 856 857 0
-855 856 858 0
-858 859 860 0
-858 859 861 0
-861 862 863 0
-861 862 864 0
-864 865 866 0
-864 865 867 0
-867 868 869 0
-853 -10 20 21 0
-853 -11 20 0
-853 -12 0
-854 -10 19 0
-854 -11 21 0
-854 -12 20 0
844 845 0
844 846 0
-846 847 848 0
-846 847 849 0
-849 850 851 0
-849 850 852 0
-852 853 854 0
-852 853 855 0
-855 856 857 0
-855 856 858 0
-858 859 860 0
-858 859 861 0
-861 862 863 0
-861 862 864 0
-864 865 866 0
-864 865 867 0
-867 868 869 0
-856 -13 26 27 0
-856 -14 26 0
-856 -15 0
-857 -13 25 0
-857 -14 27 0
-857 -15 26 0
844 845 0
844 846 0
-846 847 848 0
-846 847 849 0
-849 850 851 0
-849 850 852 0
-852 853 854 0
-852 853 855 0
-855 856 857 0
-855 856 858 0
-858 859 860 0
-858 859 861 0
-861 862 863 0
-861 862 864 0
-864 865 866 0
-864 865 867 0
-867 868 869 0
-859 -16 23 24 0
-859 -17 23 0
-859 -18 0
-860 -16 22 0
-860 -17 24 0
-860 -18 23 0
844 845 0
844 846 0
-846 847 848 0
-846 847 849 0
-849 850 851 0
-849 850 852 0
-852 853 854 0
-852 853 855 0
-855 856 857 0
-855 856 858 0
-858 859 860 0
-858 859 861 0
-861 862 863 0
-861 862 864 0
-864 865 866 0
-864 865 867 0
-867 868 869 0
-862 -19 11 12 0
-862 -20 11 0
-862 -21 0
-863 -19 10 0
-863 -20 12 0
-863 -21 11 0
844 845 0
844 846 0
-846 847 848 0
-846 847 849 0
-849 850 851 0
-849 850 852 0
-852 853 854 0
-852 853 855 0
-855 856 857 0
-855 856 858 0
-858 859 860 0
-858 859 861 0
-861 862 863 0
-861 862 864 0
-864 865 866 0
-864 865 867 0
-867 868 869 0
-865 -22 17 18 0
-865 -23 17 0
-865 -24 0
-866 -22 16 0
-866 -23 18 0
-866 -24 17 0
844 845 0
844 846 0
-846 847 848 0
-846 847 849 0
-849 850 851 0
-849 850 852 0
-852 853 854 0
-852 853 855 0
-855 856 857 0
-855 856 858 0
-858 859 860 0
-858 859 861 0
-861 862 863 0
-861 862 864 0
-864 865 866 0
-864 865 867 0
-867 868 869 0
-868 -25 14 15 0
-868 -26 14 0
-868 -27 0
-869 -25 13 0
-869 -26 15 0
-869 -27 14 0
844 845 0
844 846 0
-846 847 848 0
-846 847 849 0
-849 850 851 0
-849 850 852 0
-852 853 854 0
-852 853 855 0
-855 856 857 0
-855 856 858 0
-858 859 860 0
-858 859 861 0
-861 862 863 0
-861 862 864 0
-864 865 866 0
-864 865 867 0
-867 868 869 0
-870 -1 25 26 0
-870 -2 26 0
-870 -3 0
-871 -1 27 0
-871 -2 25 0
-871 -3 26 0
870 871 0
870 872 0
-872 873 874 0
-872 873 875 0
-875 876 877 0
-875 876 878 0
-878 879 880 0
-878 879 881 0
-881 882 883 0
-881 882 884 0
-884 885 886 0
-884 885 887 0
-887 888 889 0
-887 888 890 0
-890 891 892 0
-890 891 893 0
-893 894 895 0
-873 -4 19 20 0
-873 -5 20 0
-873 -6 0
-874 -4 21 0
-874 -5 19 0
-874 -6 20 0
870 871 0
870 872 0
-872 873 874 0
-872 873 875 0
-875 876 877 0
-875 876 878 0
-878 879 880 0
-878 879 881 0
-881 882 883 0
-881 882 884 0
-884 885 886 0
-884 885 887 0
-887 888 889 0
-887 888 890 0
-890 891 892 0
-890 891 893 0
-893 894 895 0
-876 -7 22 23 0
-876 -8 23 0
-876 -9 0
-877 -7 24 0
-877 -8 22 0
-877 -9 23 0
870 871 0
870 872 0
-872 873 874 0
-872 873 875 0
-875 876 877 0
-875 876 878 0
-878 879 880 0
-878 879 881 0
-881 882 883 0
-881 882 884 0
-884 885 886 0
-884 885 887 0
-887 888 889 0
-887 888 890 0
-890 891 892 0
-890 891 893 0
-893 894 895 0
-879 -10 7 8 0
-879 -11 8 0
-879 -12 0
-880 -10 9 0
-880 -11 7 0
-880 -12 8 0
870 871 0
870 872 0
-872 873 874 0
-872 873 875 0
-875 876 877 0
-875 876 878 0
-878 879 880 0
-878 879 881 0
-881 882 883 0
-881 882 884 0
-884 885 886 0
-884 885 887 0
-887 888 889 0
-887 888 890 0
-890 891 892 0
-890 891 893 0
-893 894 895 0
-882 -13 1 2 0
-882 -14 2 0
-882 -15 0
-883 -13 3 0
-883 -14 1 0
-883 -15 2 0
870 871 0
870 872 0
-872 873 874 0
-872 873 875 0
-875 876 877 0
-875 876 878 0
-878 879 880 0
-878 879 881 0
-881 882 883 0
-881 882 884 0
-884 885 886 0
-884 885 887 0
-887 888 889 0
-887 888 890 0
-890 891 892 0
-890 891 893 0
-893 894 895 0
-885 -16 4 5 0
-885 -17 5 0
-885 -18 0
-886 -16 6 0
-886 -17 4 0
-886 -18 5 0
870 871 0
870 872 0
-872 873 874 0
-872 873 875 0
-875 876 877 0
-875 876 878 0
-878 879 880 0
-878 879 881 0
-881 882 883 0
-881 882 884 0
-884 885 886 0
-884 885 887 0
-887 888 889 0
-887 888 890 0
-890 891 892 0
-890 891 893 0
-893 894 895 0
-888 -19 16 17 0
-888 -20 17 0
-888 -21 0
-889 -19 18 0
-889 -20 16 0
-889 -21 17 0
870 871 0
870 872 0
-872 873 874 0
-872 873 875 0
-875 876 877 0
-875 876 878 0
-878 879 880 0
-878 879 881 0
-881 882 883 0
-881 882 884 0
-884 885 886 0
-884 885 887 0
-887 888 889 0
-887 888 890 0
-890 891 892 0
-890 891 893 0
-893 894 895 0
-891 -22 10 11 0
-891 -23 11 0
-891 -24 0
-892 -22 12 0
-892 -23 10 0
-892 -24 11 0
870 871 0
870 872 0
-872 873 874 0
-872 873 875 0
-875 876 877 0
-875 876 878 0
-878 879 880 0
-878 879 881 0
-881 882 883 0
-881 882 884 0
-884 885 886 0
-884 885 887 0
-887 888 889 0
-887 888 890 0
-890 891 892 0
-890 891 893 0
-893 894 895 0
-894 -25 13 14 0
-894 -26 14 0
-894 -27 0
-895 -25 15 0
-895 -26 13 0
-895 -27 14 0
870 871 0
870 872 0
-872 873 874 0
-872 873 875 0
-875 876 877 0
-875 876 878 0
-878 879 880 0
-878 879 881 0
-881 882 883 0
-881 882 884 0
-884 885 886 0
-884 885 887 0
-887 888 889 0
-887 888 890 0
-890 891 892 0
-890 891 893 0
-893 894 895 0
-896 -1 13 15 0
-896 -2 13 0
-896 -3 0
-897 -1 14 0
-897 -2 15 0
-897 -3 13 0
896 897 0
896 898 0
-898 899 900 0
-898 899 901 0
-901 902 903 0
-901 902 904 0
-904 905 906 0
-904 905 907 0
-907 908 909 0
-907 908 910 0
-910 911 912 0
-910 911 913 0
-913 914 915 0
-913 914 916 0
-916 917 918 0
-916 917 919 0
-919 920 921 0
-899 -4 16 18 0
-899 -5 16 0
-899 -6 0
-900 -4 17 0
-900 -5 18 0
-900 -6 16 0
896 897 0
896 898 0
-898 899 900 0
-898 899 901 0
-901 902 903 0
-901 902 904 0
-904 905 906 0
-904 905 907 0
-907 908 909 0
-907 908 910 0
-910 911 912 0
-910 911 913 0
-913 914 915 0
-913 914 916 0
-916 917 918 0
-916 917 919 0
-919 920 921 0
-902 -7 10 12 0
-902 -8 10 0
-902 -9 0
-903 -7 11 0
-903 -8 12 0
-903 -9 10 0
896 897 0
896 898 0
-898 899 900 0
-898 899 901 0
-901 902 903 0
-901 902 904 0
-904 905 906 0
-904 905 907 0
-907 908 909 0
-907 908 910 0
-910 911 912 0
-910 911 913 0
-913 914 915 0
-913 914 916 0
-916 917 918 0
-916 917 919 0
-919 920 921 0
-905 -10 22 24 0
-905 -11 22 0
-905 -12 0
-906 -10 23 0
-906 -11 24 0
-906 -12 22 0
896 897 0
896 898 0
-898 899 900 0
-898 899 901 0
-901 902 903 0
-901 902 904 0
-904 905 906 0
-904 905 907 0
-907 908 909 0
-907 908 910 0
-910 911 912 0
-910 911 913 0
-913 914 915 0
-913 914 916 0
-916 917 918 0
-916 917 919 0
-919 920 921 0
-908 -13 25 27 0
-908 -14 25 0
-908 -15 0
-909 -13 26 0
-909 -14 27 0
-909 -15 25 0
896 897 0
896 898 0
-898 899 900 0
-898 899 901 0
-901 902 903 0
-901 902 904 0
-904 905 906 0
-904 905 907 0
-907 908 909 0
-907 908 910 0
-910 911 912 0
-910 911 913 0
-913 914 915 0
-913 914 916 0
-916 917 918 0
-916 917 919 0
-919 920 921 0
-911 -16 19 21 0
-911 -17 19 0
-911 -18 0
-912 -16 20 0
-912 -17 21 0
-912 -18 19 0
896 897 0
896 898 0
-898 899 900 0
-898 899 901 0
-901 902 903 0
-901 902 904 0
-904 905 906 0
-904 905 907 0
-907 908 909 0
-907 908 910 0
-910 911 912 0
-910 911 913 0
-913 914 915 0
-913 914 916 0
-916 917 918 0
-916 917 919 0
-919 920 921 0
-914 -19 4 6 0
-914 -20 4 0
-914 -21 0
-915 -19 5 0
-915 -20 6 0
-915 -21 4 0
896 897 0
896 898 0
-898 899 900 0
-898 899 901 0
-901 902 903 0
-901 902 904 0
-904 905 906 0
-904 905 907 0
-907 908 909 0
-907 908 910 0
-910 911 912 0
-910 911 913 0
-913 914 915 0
-913 914 916 0
-916 917 918 0
-916 917 919 0
-919 920 921 0
-917 -22 7 9 0
-917 -23 7 0
-917 -24 0
-918 -22 8 0
-918 -23 9 0
-918 -24 7 0
896 897 0
896 898 0
-898 899 900 0
-898 899 901 0
-901 902 903 0
-901 902 904 0
-904 905 906 0
-904 905 907 0
-907 908 909 0
-907 908 910 0
-910 911 912 0
-910 911 913 0
-913 914 915 0
-913 914 916 0
-916 917 918 0
-916 917 919 0
-919 920 921 0
-920 -25 1 3 0
-920 -26 1 0
-920 -27 0
-921 -25 2 0
-921 -26 3 0
-921 -27 1 0
896 897 0
896 898 0
-898 899 900 0
-898 899 901 0
-901 902 903 0
-901 902 904 0
-904 905 906 0
-904 905 907 0
-907 908 909 0
-907 908 910 0
-910 911 912 0
-910 911 913 0
-913 914 915 0
-913 914 916 0
-916 917 918 0
-916 917 919 0
-919 920 921 0
